1984
4478
3964
6760
7868
2207
2364
1917
9742
9467
6471
7243
1562
9608
2004
2547
1710
7448
1835
2679
7623
8712
8658
4938
3637
5901
6329
3271
5265
1529
9281
5868
3681
6064
5470
1689
7523
4602
9448
9431
9430
10078
6964
2216
10172
6754
9077
919
2944
3001
2400
